
Gurobi 9.1.2 (win64) logging started Tue Dec  7 10:40:30 2021

Gurobi Optimizer version 9.1.2 build v9.1.2rc0 (win64)
Thread count: 8 physical cores, 8 logical processors, using up to 8 threads
Optimize a model with 1 rows, 48 columns and 47 nonzeros
Model fingerprint: 0xc2cf60a8
Variable types: 1 continuous, 47 integer (47 binary)
Coefficient statistics:
  Matrix range     [1e+00, 1e+01]
  Objective range  [1e+00, 1e+00]
  Bounds range     [3e+00, 3e+00]
  RHS range        [1e+01, 1e+01]
Presolve time: 0.00s
Presolved: 1 rows, 48 columns, 47 nonzeros
Variable types: 1 continuous, 47 integer (47 binary)

Root simplex log...

Iteration    Objective       Primal Inf.    Dual Inf.      Time
       0   -3.0259938e+00   1.151080e-01   0.000000e+00     14s
       3   -3.0259938e+00   0.000000e+00   0.000000e+00     14s

Root relaxation: objective -3.025994e+00, 3 iterations, 0.00 seconds

    Nodes    |    Current Node    |     Objective Bounds      |     Work
 Expl Unexpl |  Obj  Depth IntInf | Incumbent    BestBd   Gap | It/Node Time

     0     0   -2.21917    0    2          -   -2.21917      -     -   14s
H    0     0                       0.9443809   -2.21917   335%     -   14s
H    0     0                       0.9162481   -2.21917   342%     -   14s
     0     0   -1.73677    0    3    0.91625   -1.73677   290%     -   14s
H    0     0                       0.9162481   -1.73677   290%     -   14s
     0     0   -1.00251    0    7    0.91625   -1.00251   209%     -   14s
H    0     0                       0.9137156   -1.00251   210%     -   16s
     0     0   -0.80748    0    5    0.91372   -0.80748   188%     -   16s
     0     0   -0.77608    0    6    0.91372   -0.77608   185%     -   16s
     0     0   -0.63436    0    8    0.91372   -0.63436   169%     -   16s
H    0     0                       0.9137156   -0.63436   169%     -   16s
     0     0   -0.53801    0   10    0.91372   -0.53801   159%     -   16s
     0     0   -0.53513    0    9    0.91372   -0.53513   159%     -   16s
     0     0   -0.47802    0   10    0.91372   -0.47802   152%     -   16s
H    0     0                       0.9137156   -0.47802   152%     -   16s
     0     0   -0.44149    0    9    0.91372   -0.44149   148%     -   16s
     0     0   -0.44075    0    9    0.91372   -0.44075   148%     -   16s
     0     0   -0.43680    0    9    0.91372   -0.43680   148%     -   16s
     0     2   -0.43680    0    9    0.91372   -0.43680   148%     -   16s

Cutting planes:
  Cover: 1
  MIR: 7
  Lazy constraints: 22

Explored 46 nodes (278 simplex iterations) in 16.66 seconds
Thread count was 8 (of 8 available processors)

Solution count 4: 0.913716 0.916248 0.916248 0.944381 

Optimal solution found (tolerance 1.00e-04)
Best objective 9.137156003212e-01, best bound 9.137156003212e-01, gap 0.0000%

User-callback calls 291, time in user-callback 20.27 sec
